(set-logic QF_SLAH)

(declare-datatypes ((data_t 0)) (((c_data_t (sz Int)))))

(declare-heap (Int data_t))

(define-fun hck ((?x Int) (?y Int) (?v Int)) Bool
	(and
		(>= (- ?y ?x) 2) (<= (- ?y ?x) ?v)
		(sep (pto ?x (c_data_t (- ?y ?x))) (blk (+ ?x 1) ?y))
))

(define-fun-rec hls ((?x Int) (?y Int) (?v Int)) Bool
	(or
		(and (= ?x ?y) (_ emp Int data_t))
		(exists ((?w Int)) (sep (hck ?x ?w ?v) (hls ?w ?y ?v)))
))

(declare-const x0 Int)
(declare-const x1 Int)
(declare-const x2 Int)
(declare-const x3 Int)
(declare-const x4 Int)
(declare-const x5 Int)
(declare-const x6 Int)
(declare-const x7 Int)
(declare-const x8 Int)
(declare-const x9 Int)
(declare-const x10 Int)
(declare-const x11 Int)
(declare-const x12 Int)
(declare-const x13 Int)
(declare-const x14 Int)
(declare-const x15 Int)
(declare-const v14 Int)
(declare-const x16 Int)
(declare-const x17 Int)
(declare-const x18 Int)
(declare-const x19 Int)
(declare-const x20 Int)
(declare-const x21 Int)
(declare-const x22 Int)
(declare-const x23 Int)
(declare-const x24 Int)
(declare-const x25 Int)
(declare-const v24 Int)
(declare-const x26 Int)
(declare-const x27 Int)
(declare-const v26 Int)
(declare-const x28 Int)
(declare-const x29 Int)
(declare-const v28 Int)
(declare-const x30 Int)
(declare-const x31 Int)
(declare-const v30 Int)
(declare-const x32 Int)
(declare-const x33 Int)
(declare-const x34 Int)
(declare-const x35 Int)
(declare-const x36 Int)
(declare-const x37 Int)
(declare-const x38 Int)
(declare-const x39 Int)
(declare-const x40 Int)
(declare-const x41 Int)
(declare-const x42 Int)
(declare-const x43 Int)
(declare-const v42 Int)
(declare-const x44 Int)
(declare-const x45 Int)
(declare-const v44 Int)
(declare-const x46 Int)
(declare-const x47 Int)
(declare-const x48 Int)
(declare-const x49 Int)
(declare-const v48 Int)
(declare-const x50 Int)
(declare-const x51 Int)
(declare-const v50 Int)
(declare-const x52 Int)
(declare-const x53 Int)
(declare-const v52 Int)
(declare-const x54 Int)
(declare-const x55 Int)
(declare-const x56 Int)
(declare-const x57 Int)
(declare-const v56 Int)
(declare-const x58 Int)
(declare-const x59 Int)
(declare-const x60 Int)
(declare-const x61 Int)
(declare-const x62 Int)
(declare-const x63 Int)
(declare-const x64 Int)
(declare-const x65 Int)
(declare-const v64 Int)
(declare-const x66 Int)
(declare-const x67 Int)
(declare-const x68 Int)
(declare-const x69 Int)
(declare-const x70 Int)
(declare-const x71 Int)
(declare-const x72 Int)
(declare-const x73 Int)
(declare-const x74 Int)
(declare-const x75 Int)
(declare-const v74 Int)
(declare-const x76 Int)
(declare-const x77 Int)
(declare-const x78 Int)
(declare-const x79 Int)
(declare-const x80 Int)
(declare-const x81 Int)
(declare-const v80 Int)
(declare-const x82 Int)
(declare-const x83 Int)
(declare-const x84 Int)
(declare-const x85 Int)
(declare-const x86 Int)
(declare-const x87 Int)
(declare-const x88 Int)
(declare-const x89 Int)
(declare-const v88 Int)
(declare-const x90 Int)
(declare-const x91 Int)
(declare-const x92 Int)
(declare-const x93 Int)
(declare-const x94 Int)
(declare-const x95 Int)
(declare-const x96 Int)
(declare-const x97 Int)
(declare-const v96 Int)
(declare-const x98 Int)
(declare-const x99 Int)
(declare-const x100 Int)
(declare-const x101 Int)
(declare-const v100 Int)
(declare-const x102 Int)
(declare-const x103 Int)
(declare-const v102 Int)
(declare-const x104 Int)
(declare-const x105 Int)
(declare-const v104 Int)
(declare-const x106 Int)
(declare-const x107 Int)
(declare-const x108 Int)
(declare-const x109 Int)
(declare-const x110 Int)
(declare-const x111 Int)
(declare-const v110 Int)
(declare-const x112 Int)
(declare-const x113 Int)
(declare-const x114 Int)
(declare-const x115 Int)
(declare-const v114 Int)
(declare-const x116 Int)
(declare-const x117 Int)
(declare-const x118 Int)
(declare-const x119 Int)
(declare-const v118 Int)
(declare-const x120 Int)
(declare-const x121 Int)
(declare-const v120 Int)
(declare-const x122 Int)
(declare-const x123 Int)
(declare-const x124 Int)
(declare-const x125 Int)
(declare-const x126 Int)
(declare-const x127 Int)
(declare-const x128 Int)
(declare-const x129 Int)
(declare-const x130 Int)
(declare-const x131 Int)
(declare-const x132 Int)
(declare-const x133 Int)
(declare-const v132 Int)
(declare-const x134 Int)
(declare-const x135 Int)
(declare-const x136 Int)
(declare-const x137 Int)
(declare-const x138 Int)
(declare-const x139 Int)
(declare-const x140 Int)
(declare-const x141 Int)
(declare-const v140 Int)
(declare-const x142 Int)
(declare-const x143 Int)
(declare-const v142 Int)
(declare-const x144 Int)
(declare-const x145 Int)
(declare-const x146 Int)
(declare-const x147 Int)
(declare-const x148 Int)
(declare-const x149 Int)
(declare-const v148 Int)
(declare-const x150 Int)
(declare-const x151 Int)
(declare-const x152 Int)
(declare-const x153 Int)
(declare-const x154 Int)
(declare-const x155 Int)
(declare-const x156 Int)
(declare-const x157 Int)
(declare-const x158 Int)
(declare-const x159 Int)
(declare-const v158 Int)
(declare-const x160 Int)
(declare-const x161 Int)
(declare-const x162 Int)
(declare-const x163 Int)
(declare-const v162 Int)
(declare-const x164 Int)
(declare-const x165 Int)
(declare-const x166 Int)
(declare-const x167 Int)
(declare-const v166 Int)
(declare-const x168 Int)
(declare-const x169 Int)
(declare-const x170 Int)
(declare-const x171 Int)
(declare-const x172 Int)
(declare-const x173 Int)
(declare-const x174 Int)
(declare-const x175 Int)
(declare-const v174 Int)
(declare-const x176 Int)
(declare-const x177 Int)
(declare-const x178 Int)
(declare-const x179 Int)

(assert(and
(distinct x135 x66) (distinct x126 x0) (distinct x135 x166) (distinct x36 x16) (= x63 x143) 
(sep
(blk x0 x1)
(pto x2 (c_data_t x3))
(blk x4 x5)
(pto x6 (c_data_t x7))
(blk x8 x9)
(blk x10 x11)
(blk x12 x13)
(hls x14 x15 v14)
(pto x16 (c_data_t x17))
(pto x18 (c_data_t x19))
(pto x20 (c_data_t x21))
(blk x22 x23)
(hls x24 x25 v24)
(hls x26 x27 v26)
(hls x28 x29 v28)
(hls x30 x31 v30)
(blk x32 x33)
(pto x34 (c_data_t x35))
(pto x36 (c_data_t x37))
(pto x38 (c_data_t x39))
(pto x40 (c_data_t x41))
(hls x42 x43 v42)
(hls x44 x45 v44)
(pto x46 (c_data_t x47))
(hls x48 x49 v48)
(hls x50 x51 v50)
(hls x52 x53 v52)
(pto x54 (c_data_t x55))
(hls x56 x57 v56)
(pto x58 (c_data_t x59))
(blk x60 x61)
(blk x62 x63)
(hls x64 x65 v64)
(blk x66 x67)
(pto x68 (c_data_t x69))
(pto x70 (c_data_t x71))
(pto x72 (c_data_t x73))
(hls x74 x75 v74)
(pto x76 (c_data_t x77))
(pto x78 (c_data_t x79))
(hls x80 x81 v80)
(blk x82 x83)
(blk x84 x85)
(pto x86 (c_data_t x87))
(hls x88 x89 v88)
(blk x90 x91)
(blk x92 x93)
(blk x94 x95)
(hls x96 x97 v96)
(blk x98 x99)
(hls x100 x101 v100)
(hls x102 x103 v102)
(hls x104 x105 v104)
(blk x106 x107)
(pto x108 (c_data_t x109))
(hls x110 x111 v110)
(pto x112 (c_data_t x113))
(hls x114 x115 v114)
(pto x116 (c_data_t x117))
(hls x118 x119 v118)
(hls x120 x121 v120)
(blk x122 x123)
(pto x124 (c_data_t x125))
(blk x126 x127)
(pto x128 (c_data_t x129))
(blk x130 x131)
(hls x132 x133 v132)
(blk x134 x135)
(pto x136 (c_data_t x137))
(blk x138 x139)
(hls x140 x141 v140)
(hls x142 x143 v142)
(blk x144 x145)
(pto x146 (c_data_t x147))
(hls x148 x149 v148)
(pto x150 (c_data_t x151))
(blk x152 x153)
(pto x154 (c_data_t x155))
(blk x156 x157)
(hls x158 x159 v158)
(blk x160 x161)
(hls x162 x163 v162)
(pto x164 (c_data_t x165))
(hls x166 x167 v166)
(blk x168 x169)
(pto x170 (c_data_t x171))
(pto x172 (c_data_t x173))
(hls x174 x175 v174)
(blk x176 x177)
(blk x178 x179)
)))

(check-sat)